37 42 21 87 55 54 80 
60 69 40 66 71 51 
39 8 20 3 
33 11 32 29 77 58 
43 44 38 56 74 93 
24 89 35 90 
61 76 68 4 
81 65 19 52 70 
94 88 99 84 72 
63 30 79 13 100 97 
36 47 64 49 83 85 98 
45 15 41 22 12 25 
26 73 78 9 10 31 1 50 
28 27 75 6 16 86 5 59 
82 62 48 53 95 14 91 
96 92 57 2 7 46 17 18 
23 67 34 

